&GLOBAL
  PROJECT water
  PREFERRED_FFT_LIBRARY FFTW
  FFTW_PLAN_TYPE MEASURE
  PREFERRED_DIAG_LIBRARY ELPA
  RUN_TYPE MD
  PRINT_LEVEL LOW
&END GLOBAL

&FORCE_EVAL
  &DFT
    BASIS_SET_FILE_NAME GTH_BASIS_SETS
    BASIS_SET_FILE_NAME BASIS_ADMM
    POTENTIAL_FILE_NAME POTENTIAL
    WFN_RESTART_FILE_NAME water-RESTART.wfn
    &MGRID
      CUTOFF 400
    &END MGRID
    &SCF
      # needs a pre-converged wfn as input
      SCF_GUESS RESTART
      MAX_SCF 20
      EPS_SCF 5.0E-7
      &OT
        MINIMIZER DIIS
        PRECONDITIONER FULL_ALL
      &END OT
      &OUTER_SCF
        MAX_SCF 20
        EPS_SCF 5.0E-7
      &END OUTER_SCF
      &PRINT
        &RESTART
          ADD_LAST NUMERIC
          &EACH
            QS_SCF 0
          &END EACH
        &END RESTART
      &END PRINT
    &END SCF
    &QS
      EPS_DEFAULT 1.0E-12
      EPS_PGF_ORB 1.0E-14
    &END QS
    &XC # revPBE0-D3
      &XC_FUNCTIONAL
        &PBE
          PARAMETRIZATION REVPBE
          SCALE_X 0.75
          SCALE_C 1.0
        &END
      &END XC_FUNCTIONAL
      &XC_GRID
        XC_DERIV SPLINE2
      &END XC_GRID
      &HF
        FRACTION 0.25
        &SCREENING
          EPS_SCHWARZ 1.0E-6
          SCREEN_ON_INITIAL_P TRUE
        &END SCREENING
        &MEMORY
          MAX_MEMORY 3700
          EPS_STORAGE_SCALING 0.1
        &END MEMORY
        &INTERACTION_POTENTIAL
          POTENTIAL_TYPE TRUNCATED
          CUTOFF_RADIUS 6.0
          T_C_G_DATA t_c_g.dat
        &END
        &HF_INFO
        &END HF_INFO
      &END
      &VDW_POTENTIAL
        POTENTIAL_TYPE PAIR_POTENTIAL
        &PAIR_POTENTIAL
          TYPE DFTD3
          R_CUTOFF 15
          LONG_RANGE_CORRECTION TRUE
          REFERENCE_FUNCTIONAL revPBE0
          PARAMETER_FILE_NAME dftd3.dat
        &END PAIR_POTENTIAL
      &END VDW_POTENTIAL
    &END XC
    &AUXILIARY_DENSITY_MATRIX_METHOD
      METHOD BASIS_PROJECTION
      ADMM_PURIFICATION_METHOD MO_DIAG
    &END AUXILIARY_DENSITY_MATRIX_METHOD
  &END DFT
  &SUBSYS
    &TOPOLOGY
      COORD_FILE_FORMAT XYZ
      COORD_FILE_NAME {input_trajectory_fname:}
    &END TOPOLOGY
    &CELL
      ABC [angstrom] X Y Z
      PERIODIC XYZ
    &END CELL
    &KIND H
      BASIS_SET TZV2P-GTH-q1
      BASIS_SET AUX_FIT cpFIT3
      POTENTIAL GTH-PBE-q1
    &END KIND
    &KIND O
      BASIS_SET TZV2P-GTH-q6
      BASIS_SET AUX_FIT cpFIT3
      POTENTIAL GTH-PBE-q6
    &END KIND
  &END SUBSYS
&END FORCE_EVAL

&MOTION
  &MD
    STEPS 0
  &END MD
  &PRINT
    &FORCES
      FILENAME ={output_trajectory_fname:}
      &EACH
        MD 1
      &END EACH
    &END FORCES
  &END PRINT
&END MOTION
