&GLOBAL
  PROJECT water
  PREFERRED_FFT_LIBRARY FFTW
  FFTW_PLAN_TYPE MEASURE
  PREFERRED_DIAG_LIBRARY ELPA
  RUN_TYPE ENERGY
  PRINT_LEVEL LOW
&END GLOBAL

&FORCE_EVAL
  &DFT
    BASIS_SET_FILE_NAME GTH_BASIS_SETS
    BASIS_SET_FILE_NAME BASIS_ADMM
    POTENTIAL_FILE_NAME POTENTIAL
    &MGRID
      CUTOFF 400
    &END MGRID
    &SCF
      SCF_GUESS ATOMIC
      MAX_SCF 20
      EPS_SCF 5.0E-7
      &OT
        MINIMIZER DIIS
        PRECONDITIONER FULL_ALL
      &END OT
      &OUTER_SCF
        MAX_SCF 20
        EPS_SCF 5.0E-7
      &END OUTER_SCF
      &PRINT
        &RESTART
          ADD_LAST NUMERIC
          &EACH
            QS_SCF 0
          &END EACH
        &END RESTART
      &END PRINT
    &END SCF
    &QS
      EPS_DEFAULT 1.0E-12
      EPS_PGF_ORB 1.0E-14
    &END QS
    &XC # revPBE
      &XC_FUNCTIONAL
        &PBE
          PARAMETRIZATION REVPBE
        &END
      &END XC_FUNCTIONAL
      &XC_GRID
        XC_DERIV SPLINE2
      &END XC_GRID
    &END XC
  &END DFT
  &SUBSYS
    &TOPOLOGY
      COORD_FILE_FORMAT XYZ
      COORD_FILE_NAME {input_trajectory_fname:}
    &END TOPOLOGY
    &CELL
      ABC [angstrom] X Y Z
      PERIODIC XYZ
    &END CELL
    &KIND H
      BASIS_SET TZV2P-GTH-q1
      POTENTIAL GTH-PBE-q1
    &END KIND
    &KIND O
      BASIS_SET TZV2P-GTH-q6
      POTENTIAL GTH-PBE-q6
    &END KIND
  &END SUBSYS
&END FORCE_EVAL

